WARNING: for repeatability, setting FPU to use double precision
============================[ Problem Statistics ]=============================
|                                                                             |
|  Number of variables:        141429                                         |
|  Number of clauses:          646015                                         |
|  Parse time:                   0.13 s                                       |
|                                                                             |
c ============================[ Search Statistics ]==============================
c | Conflicts |          ORIGINAL         |          LEARNT          | Progress |
c |           |    Vars  Clauses Literals |    Limit  Clauses Lit/Cl |          |
c ===============================================================================
c Switched to VSIDS.
c Switched to LRB.
c Switched to VSIDS.
c Switched to LRB.
c Switched to VSIDS.
c Switched to LRB.
c Switched to VSIDS.
c Switched to LRB.
c Switched to VSIDS.
c Switched to LRB.
c Switched to VSIDS.
c Switched to LRB.
c Switched to VSIDS.
c Switched to LRB.
c Switched to VSIDS.
c Switched to LRB.
c Switched to VSIDS.
c Switched to LRB.
c Switched to VSIDS.
c Switched to LRB.
c Switched to VSIDS.
c Switched to LRB.
c Switched to VSIDS.
c Switched to LRB.
c Switched to VSIDS.
c Switched to LRB.
c Switched to VSIDS.
c Switched to LRB.
c Switched to VSIDS.
c Switched to LRB.
c ===============================================================================
restarts                  : 26134
conflicts                 : 4382411        (1228 /sec)
decisions                 : 46518325       (0.00 % random) (13032 /sec)
propagations              : 5778515711     (1618802 /sec)
conflict literals         : 470549269      (16.75 % deleted)

conflicts w/ DIP found    : 3583786        (81.78 % of conflicts)
conflicts w/ dangerous DIP: 0              (0.00 % of conflicts)
conflicts w/ DIP-learning : 1029           (0.02 % of conflicts)
decisions on ext vars     : 1641           (0.00 % of decisions)
total ext vars            : 354         
tried delete ext vars     : 0           
deleted ext vars          : 0           
max ext vars              : 354         

Memory used               : 544.00 MB
CPU time                  : 3569.62 s
DIP computation time      : 259.185 s (7.26 % of total time)
ER_sel time               : 6.86798 s
ER_add time               : 0.004919 s
ER_delC time              : 0 s
ER_delV time              : 0 s
ER_sub time               : 8.55454 s
ER_stat time              : 0 s

INDETERMINATE
